# Optimal value by DCA: 0.000318
data;

param N = 200;
param capacity := 
1 81
2 95
3 70
4 49
5 95
6 46
7 125
8 96
9 106
10 64
11 59
12 78
13 93
14 111
15 122
16 75
17 116
18 71
19 96
20 58
21 92
22 54
23 72
24 76
25 90
26 87
27 61
28 88
29 104
30 94
31 127
32 94
33 50
34 89
35 83
36 96
37 125
38 124
39 43
40 48
41 35
42 71
43 47
44 110
45 107
46 127
47 90
48 79
49 121
50 74
51 78
52 81
53 88
54 42
55 85
56 79
57 119
58 90
59 71
60 83
61 46
62 87
63 125
64 93
65 99
66 80
67 83
68 111
69 90
70 107
71 54
72 90
73 107
74 60
75 56
76 105
77 120
78 41
79 85
80 125
81 123
82 115
83 71
84 70
85 58
86 55
87 92
88 44
89 33
90 71
91 70
92 95
93 69
94 90
95 96
96 71
97 107
98 93
99 77
100 95
101 112
102 82
103 97
104 127
105 83
106 53
107 124
108 57
109 63
110 73
111 118
112 86
113 67
114 110
115 112
116 77
117 62
118 71
119 86
120 98
121 48
122 66
123 37
124 53
125 59
126 96
127 125
128 107
129 98
130 41
131 68
132 117
133 115
134 87
135 93
136 111
137 93
138 112
139 97
140 76
141 40
142 40
143 118
144 74
145 63
146 74
147 55
148 111
149 68
150 63
151 92
152 116
153 108
154 73
155 89
156 127
157 94
158 61
159 71
160 80
161 87
162 52
163 98
164 46
165 85
166 43
167 76
168 70
169 76
170 73
171 67
172 94
173 125
174 89
175 113
176 90
177 61
178 71
179 84
180 111
181 88
182 69
183 75
184 44
185 129
186 72
187 63
188 42
189 83
190 126
191 91
192 67
193 86
194 95
195 97
196 71
197 47
198 81
199 98
200 41
;
param nested_lowerbound := 
1 2
2 28
3 92
4 123
5 129
6 174
7 258
8 268
9 275
10 305
11 363
12 432
13 450
14 482
15 594
16 610
17 679
18 713
19 742
20 790
21 794
22 827
23 846
24 876
25 916
26 932
27 947
28 961
29 1022
30 1068
31 1162
32 1166
33 1176
34 1205
35 1285
36 1358
37 1420
38 1541
39 1545
40 1576
41 1597
42 1651
43 1687
44 1797
45 1828
46 1952
47 2037
48 2054
49 2125
50 2130
51 2172
52 2198
53 2265
54 2288
55 2339
56 2404
57 2504
58 2574
59 2593
60 2650
61 2679
62 2719
63 2723
64 2815
65 2823
66 2869
67 2893
68 2995
69 3013
70 3094
71 3117
72 3172
73 3193
74 3248
75 3273
76 3293
77 3324
78 3346
79 3357
80 3449
81 3559
82 3622
83 3654
84 3713
85 3724
86 3762
87 3764
88 3787
89 3789
90 3812
91 3872
92 3958
93 3971
94 3981
95 4016
96 4016
97 4077
98 4084
99 4090
100 4096
101 4156
102 4198
103 4293
104 4343
105 4425
106 4471
107 4529
108 4562
109 4580
110 4640
111 4647
112 4718
113 4765
114 4766
115 4857
116 4890
117 4937
118 4939
119 4995
120 5086
121 5121
122 5185
123 5189
124 5208
125 5211
126 5237
127 5303
128 5368
129 5392
130 5426
131 5459
132 5537
133 5565
134 5622
135 5693
136 5774
137 5827
138 5883
139 5936
140 6003
141 6036
142 6043
143 6103
144 6113
145 6172
146 6213
147 6260
148 6274
149 6310
150 6340
151 6394
152 6441
153 6529
154 6598
155 6653
156 6717
157 6764
158 6802
159 6825
160 6901
161 6978
162 6982
163 7065
164 7067
165 7069
166 7099
167 7108
168 7108
169 7159
170 7227
171 7259
172 7331
173 7372
174 7418
175 7452
176 7522
177 7562
178 7607
179 7610
180 7634
181 7640
182 7652
183 7702
184 7730
185 7764
186 7826
187 7842
188 7849
189 7932
190 7992
191 8027
192 8053
193 8077
194 8149
195 8180
196 8237
197 8242
198 8278
199 8333
200 8541
;
param nested_upperbound := 
1 71
2 125
3 130
4 134
5 174
6 200
7 289
8 360
9 361
10 382
11 407
12 465
13 492
14 540
15 601
16 658
17 705
18 717
19 782
20 822
21 834
22 850
23 892
24 946
25 1012
26 1084
27 1106
28 1171
29 1178
30 1261
31 1365
32 1447
33 1482
34 1543
35 1560
36 1629
37 1674
38 1757
39 1784
40 1814
41 1819
42 1864
43 1893
44 1940
45 1949
46 2024
47 2084
48 2121
49 2182
50 2228
51 2251
52 2268
53 2294
54 2334
55 2400
56 2462
57 2575
58 2574
59 2608
60 2677
61 2700
62 2746
63 2823
64 2913
65 2919
66 2947
67 2957
68 3009
69 3083
70 3163
71 3198
72 3268
73 3355
74 3384
75 3389
76 3442
77 3534
78 3540
79 3596
80 3635
81 3757
82 3860
83 3900
84 3913
85 3922
86 3970
87 4050
88 4062
89 4075
90 4101
91 4168
92 4207
93 4265
94 4320
95 4338
96 4349
97 4398
98 4402
99 4420
100 4455
101 4553
102 4576
103 4617
104 4631
105 4658
106 4694
107 4812
108 4816
109 4818
110 4836
111 4899
112 4923
113 4966
114 5067
115 5090
116 5144
117 5158
118 5226
119 5239
120 5298
121 5327
122 5360
123 5390
124 5402
125 5424
126 5501
127 5582
128 5688
129 5689
130 5719
131 5747
132 5772
133 5821
134 5853
135 5904
136 5922
137 5942
138 6039
139 6062
140 6124
141 6156
142 6156
143 6203
144 6260
145 6273
146 6338
147 6356
148 6365
149 6366
150 6421
151 6507
152 6518
153 6611
154 6677
155 6734
156 6779
157 6839
158 6847
159 6905
160 6923
161 7001
162 7014
163 7084
164 7087
165 7128
166 7156
167 7204
168 7252
169 7269
170 7277
171 7338
172 7393
173 7418
174 7504
175 7556
176 7594
177 7595
178 7645
179 7691
180 7735
181 7821
182 7866
183 7914
184 7938
185 7956
186 7964
187 7995
188 8012
189 8073
190 8194
191 8210
192 8223
193 8246
194 8317
195 8359
196 8404
197 8422
198 8497
199 8534
200 8541
;
param cost_a := 
1 0.985124
2 0.652953
3 0.914522
4 0.483301
5 0.714327
6 0.567951
7 0.227773
8 0.056857
9 0.865391
10 0.524596
11 0.496851
12 0.401513
13 0.382833
14 0.125468
15 0.118985
16 0.377417
17 0.877047
18 0.611720
19 0.020954
20 0.457067
21 0.222576
22 0.025222
23 0.448893
24 0.098501
25 0.008216
26 0.995766
27 0.267314
28 0.360554
29 0.646169
30 0.440314
31 0.196164
32 0.696064
33 0.026564
34 0.907526
35 0.290678
36 0.727076
37 0.526538
38 0.840849
39 0.188557
40 0.267996
41 0.949622
42 0.667244
43 0.212429
44 0.918335
45 0.581591
46 0.346172
47 0.322816
48 0.196066
49 0.002979
50 0.834728
51 0.167798
52 0.425805
53 0.596353
54 0.839869
55 0.070260
56 0.432932
57 0.828035
58 0.237469
59 0.732146
60 0.525437
61 0.369276
62 0.640473
63 0.717304
64 0.269673
65 0.951056
66 0.794699
67 0.400529
68 0.184392
69 0.519458
70 0.770889
71 0.040123
72 0.689323
73 0.775233
74 0.305399
75 0.944759
76 0.450242
77 0.541478
78 0.119457
79 0.362676
80 0.661871
81 0.607472
82 0.618186
83 0.722199
84 0.803136
85 0.744569
86 0.035667
87 0.197311
88 0.986201
89 0.481631
90 0.851073
91 0.260481
92 0.201380
93 0.962851
94 0.153458
95 0.917167
96 0.534431
97 0.789922
98 0.579069
99 0.692402
100 0.800904
101 0.173333
102 0.485100
103 0.159600
104 0.004130
105 0.984205
106 0.157572
107 0.865179
108 0.579095
109 0.408418
110 0.078599
111 0.909841
112 0.533876
113 0.858876
114 0.599539
115 0.198314
116 0.343448
117 0.599619
118 0.781623
119 0.464107
120 0.787623
121 0.177088
122 0.674398
123 0.614265
124 0.855514
125 0.239202
126 0.904891
127 0.721396
128 0.363350
129 0.652004
130 0.146666
131 0.116157
132 0.050621
133 0.996486
134 0.828011
135 0.503166
136 0.631460
137 0.544815
138 0.322249
139 0.836742
140 0.583815
141 0.675509
142 0.840736
143 0.850129
144 0.358391
145 0.391241
146 0.320385
147 0.632827
148 0.182509
149 0.150786
150 0.762587
151 0.495374
152 0.720920
153 0.618222
154 0.739206
155 0.549405
156 0.536309
157 0.167869
158 0.133843
159 0.963046
160 0.566614
161 0.062528
162 0.632883
163 0.727674
164 0.704461
165 0.145439
166 0.020837
167 0.991782
168 0.025913
169 0.653007
170 0.968324
171 0.581205
172 0.271428
173 0.365636
174 0.728544
175 0.232143
176 0.831298
177 0.768187
178 0.979395
179 0.314439
180 0.731027
181 0.189358
182 0.963430
183 0.417247
184 0.949022
185 0.030945
186 0.086631
187 0.107760
188 0.829617
189 0.183239
190 0.239518
191 0.455829
192 0.378878
193 0.551974
194 0.300405
195 0.543347
196 0.848806
197 0.295029
198 0.570651
199 0.146940
200 0.227451
;
param cost_b := 
1 -0.139655
2 0.382082
3 0.332225
4 0.929084
5 0.657199
6 -0.005168
7 0.888404
8 0.698649
9 -0.597627
10 -0.815603
11 0.981732
12 0.324859
13 0.240540
14 -0.306282
15 -0.484256
16 0.886139
17 0.435870
18 -0.738714
19 -0.815177
20 0.361182
21 -0.060450
22 0.794598
23 0.821675
24 0.745391
25 0.602829
26 0.058261
27 -0.744060
28 -0.274213
29 -0.118837
30 0.069798
31 -0.023901
32 0.880450
33 0.606105
34 0.049108
35 -0.191303
36 0.669780
37 0.245125
38 -0.595105
39 0.638795
40 -0.199765
41 -0.947628
42 -0.712260
43 -0.754337
44 0.692304
45 -0.239952
46 -0.408210
47 0.644735
48 0.997985
49 -0.689746
50 0.841532
51 -0.533294
52 -0.163023
53 -0.858768
54 -0.577877
55 0.861840
56 0.825417
57 -0.132700
58 -0.935510
59 -0.167259
60 -0.386736
61 -0.740807
62 -0.667923
63 -0.936505
64 -0.969359
65 -0.833958
66 0.341490
67 0.871572
68 0.576282
69 0.638902
70 -0.720308
71 -0.317198
72 -0.621530
73 -0.449886
74 0.268141
75 0.019125
76 -0.093975
77 -0.555615
78 0.519049
79 -0.889508
80 -0.055816
81 0.130196
82 -0.553598
83 -0.058640
84 -0.959213
85 0.641141
86 0.146667
87 0.188395
88 -0.390545
89 0.445672
90 -0.325704
91 0.812893
92 0.321479
93 -0.958462
94 0.094905
95 -0.355621
96 0.759524
97 0.079629
98 0.941122
99 0.449839
100 0.847961
101 0.471220
102 0.441419
103 0.260328
104 0.966035
105 0.763561
106 0.840039
107 0.669638
108 0.224988
109 0.859778
110 -0.854164
111 0.450733
112 -0.944030
113 -0.187475
114 0.203169
115 -0.900507
116 -0.222532
117 -0.020927
118 0.435207
119 -0.854902
120 -0.600735
121 0.865354
122 -0.547793
123 -0.546416
124 0.020967
125 -0.356726
126 -0.665662
127 0.398586
128 0.864870
129 0.186232
130 -0.649532
131 -0.579548
132 0.749316
133 0.207934
134 0.963490
135 0.958073
136 -0.014731
137 -0.131344
138 -0.426594
139 0.020536
140 -0.434209
141 -0.037493
142 0.615864
143 0.316030
144 -0.610328
145 0.387822
146 0.673195
147 -0.099408
148 0.808762
149 0.219551
150 -0.097832
151 -0.038305
152 0.603804
153 0.839408
154 -0.778886
155 0.140238
156 -0.680594
157 -0.539482
158 -0.038985
159 0.439666
160 0.452366
161 0.664642
162 -0.820495
163 0.462453
164 -0.808218
165 0.760367
166 -0.349855
167 -0.056421
168 0.307926
169 -0.523011
170 -0.663414
171 0.841775
172 -0.484999
173 0.861420
174 -0.269766
175 0.293918
176 -0.607695
177 0.559513
178 0.958934
179 0.323759
180 -0.279922
181 0.803812
182 0.347841
183 0.166869
184 -0.639921
185 0.208112
186 -0.174369
187 -0.432905
188 0.634371
189 0.929368
190 -0.618908
191 0.300489
192 -0.909016
193 0.024548
194 -0.042656
195 0.070302
196 0.264150
197 0.347615
198 -0.485996
199 -0.610392
200 0.374273
;
